p edge 3264 3189
e 1 2
e 1 3
e 1 4
e 1 5
e 1 6
e 1 7
e 1 8
e 1 9
e 1 10
e 1 11
e 1 12
e 1 13
e 1 14
e 1 15
e 1 16
e 1 17
e 1 18
e 1 19
e 1 20
e 1 21
e 1 22
e 1 23
e 1 24
e 1 25
e 1 26
e 1 27
e 1 28
e 1 29
e 1 30
e 1 31
e 1 32
e 1 33
e 1 34
e 1 35
e 1 36
e 1 37
e 1 38
e 1 39
e 1 40
e 1 41
e 1 42
e 1 43
e 1 44
e 1 45
e 1 46
e 1 47
e 1 48
e 1 49
e 1 50
e 1 51
e 1 52
e 1 53
e 1 54
e 1 55
e 1 56
e 57 58
e 57 59
e 57 60
e 57 61
e 57 62
e 57 63
e 57 64
e 57 65
e 57 66
e 57 67
e 57 68
e 57 69
e 57 70
e 57 71
e 57 72
e 57 73
e 57 74
e 57 75
e 57 76
e 57 77
e 57 78
e 57 79
e 57 80
e 57 81
e 57 82
e 57 83
e 57 84
e 57 85
e 57 86
e 57 87
e 57 88
e 57 89
e 57 90
e 57 91
e 57 92
e 57 93
e 57 94
e 57 95
e 57 96
e 57 97
e 57 98
e 57 99
e 57 100
e 57 101
e 57 102
e 57 103
e 57 104
e 57 105
e 57 106
e 57 107
e 57 108
e 57 109
e 57 110
e 57 111
e 57 112
e 57 113
e 57 114
e 57 115
e 57 116
e 57 117
e 57 118
e 57 119
e 57 120
e 57 121
e 57 122
e 57 123
e 124 125
e 124 126
e 124 127
e 124 128
e 124 129
e 124 130
e 124 131
e 124 132
e 124 133
e 124 134
e 124 135
e 124 136
e 124 137
e 124 138
e 124 139
e 124 140
e 124 141
e 124 142
e 124 143
e 124 144
e 124 145
e 124 146
e 124 147
e 124 148
e 124 149
e 124 150
e 124 151
e 124 152
e 124 153
e 124 154
e 124 155
e 124 156
e 124 157
e 124 158
e 124 159
e 124 160
e 124 161
e 124 162
e 124 163
e 124 164
e 124 165
e 124 166
e 124 167
e 124 168
e 124 169
e 170 171
e 170 172
e 170 173
e 170 174
e 170 175
e 170 176
e 170 177
e 170 178
e 170 179
e 170 180
e 170 181
e 170 182
e 170 183
e 170 184
e 170 185
e 170 186
e 170 187
e 170 188
e 170 189
e 170 190
e 170 191
e 170 192
e 170 193
e 170 194
e 170 195
e 170 196
e 170 197
e 170 198
e 170 199
e 170 200
e 170 201
e 170 202
e 170 203
e 170 204
e 170 205
e 170 206
e 170 207
e 170 208
e 170 209
e 170 210
e 170 211
e 170 212
e 170 213
e 170 214
e 170 215
e 170 216
e 170 217
e 170 218
e 170 219
e 170 220
e 170 221
e 170 222
e 170 223
e 170 224
e 170 225
e 170 226
e 170 227
e 170 228
e 170 229
e 170 230
e 231 232
e 231 233
e 231 234
e 231 235
e 231 236
e 231 237
e 231 238
e 231 239
e 231 240
e 231 241
e 231 242
e 231 243
e 231 244
e 231 245
e 231 246
e 231 247
e 231 248
e 231 249
e 231 250
e 231 251
e 231 252
e 231 253
e 231 254
e 231 255
e 231 256
e 231 257
e 231 258
e 231 259
e 231 260
e 231 261
e 231 262
e 263 264
e 263 265
e 263 266
e 263 267
e 263 268
e 263 269
e 263 270
e 263 271
e 263 272
e 263 273
e 263 274
e 263 275
e 263 276
e 263 277
e 263 278
e 263 279
e 263 280
e 263 281
e 263 282
e 263 283
e 263 284
e 263 285
e 263 286
e 263 287
e 263 288
e 263 289
e 263 290
e 263 291
e 263 292
e 263 293
e 263 294
e 263 295
e 263 296
e 263 297
e 298 299
e 298 300
e 298 301
e 298 302
e 298 303
e 298 304
e 298 305
e 298 306
e 298 307
e 298 308
e 298 309
e 298 310
e 298 311
e 298 312
e 298 313
e 298 314
e 298 315
e 298 316
e 298 317
e 298 318
e 298 319
e 298 320
e 298 321
e 298 322
e 298 323
e 298 324
e 298 325
e 298 326
e 298 327
e 298 328
e 298 329
e 298 330
e 298 331
e 298 332
e 298 333
e 298 334
e 298 335
e 298 336
e 298 337
e 298 338
e 298 339
e 298 340
e 298 341
e 298 342
e 298 343
e 298 344
e 298 345
e 298 346
e 298 347
e 298 348
e 298 349
e 298 350
e 298 351
e 298 352
e 298 353
e 298 354
e 298 355
e 298 356
e 298 357
e 298 358
e 359 360
e 359 361
e 359 362
e 359 363
e 359 364
e 359 365
e 359 366
e 359 367
e 359 368
e 359 369
e 359 370
e 359 371
e 359 372
e 359 373
e 359 374
e 359 375
e 359 376
e 359 377
e 359 378
e 359 379
e 359 380
e 359 381
e 359 382
e 359 383
e 359 384
e 359 385
e 359 386
e 359 387
e 359 388
e 359 389
e 359 390
e 359 391
e 359 392
e 359 393
e 359 394
e 359 395
e 359 396
e 359 397
e 359 398
e 359 399
e 359 400
e 401 402
e 401 403
e 401 404
e 401 405
e 401 406
e 401 407
e 401 408
e 401 409
e 401 410
e 401 411
e 401 412
e 401 413
e 401 414
e 401 415
e 401 416
e 401 417
e 401 418
e 401 419
e 401 420
e 401 421
e 401 422
e 401 423
e 401 424
e 401 425
e 401 426
e 401 427
e 401 428
e 401 429
e 401 430
e 401 431
e 401 432
e 401 433
e 401 434
e 401 435
e 436 437
e 436 438
e 436 439
e 436 440
e 436 441
e 436 442
e 436 443
e 436 444
e 436 445
e 436 446
e 436 447
e 436 448
e 436 449
e 436 450
e 436 451
e 436 452
e 436 453
e 436 454
e 436 455
e 436 456
e 436 457
e 436 458
e 436 459
e 436 460
e 436 461
e 436 462
e 436 463
e 436 464
e 436 465
e 436 466
e 436 467
e 436 468
e 436 469
e 470 471
e 470 472
e 470 473
e 470 474
e 470 475
e 470 476
e 470 477
e 470 478
e 470 479
e 470 480
e 470 481
e 470 482
e 470 483
e 470 484
e 470 485
e 470 486
e 470 487
e 470 488
e 470 489
e 470 490
e 470 491
e 470 492
e 470 493
e 470 494
e 470 495
e 470 496
e 470 497
e 470 498
e 470 499
e 470 500
e 470 501
e 470 502
e 470 503
e 470 504
e 470 505
e 470 506
e 470 507
e 470 508
e 470 509
e 470 510
e 511 512
e 511 513
e 511 514
e 511 515
e 511 516
e 511 517
e 511 518
e 511 519
e 511 520
e 511 521
e 511 522
e 511 523
e 511 524
e 511 525
e 511 526
e 511 527
e 511 528
e 511 529
e 511 530
e 511 531
e 511 532
e 511 533
e 511 534
e 511 535
e 511 536
e 511 537
e 511 538
e 511 539
e 511 540
e 511 541
e 511 542
e 511 543
e 511 544
e 511 545
e 511 546
e 511 547
e 511 548
e 511 549
e 511 550
e 511 551
e 511 552
e 511 553
e 511 554
e 511 555
e 511 556
e 511 557
e 511 558
e 511 559
e 511 560
e 511 561
e 511 562
e 511 563
e 511 564
e 511 565
e 511 566
e 511 567
e 511 568
e 511 569
e 511 570
e 511 571
e 511 572
e 511 573
e 574 575
e 574 576
e 574 577
e 574 578
e 574 579
e 574 580
e 574 581
e 574 582
e 574 583
e 574 584
e 574 585
e 574 586
e 574 587
e 574 588
e 574 589
e 574 590
e 574 591
e 574 592
e 574 593
e 574 594
e 574 595
e 574 596
e 574 597
e 574 598
e 574 599
e 574 600
e 574 601
e 574 602
e 574 603
e 574 604
e 574 605
e 574 606
e 574 607
e 574 608
e 609 610
e 609 611
e 609 612
e 609 613
e 609 614
e 609 615
e 609 616
e 609 617
e 609 618
e 609 619
e 609 620
e 609 621
e 609 622
e 609 623
e 609 624
e 609 625
e 609 626
e 609 627
e 609 628
e 609 629
e 609 630
e 609 631
e 609 632
e 609 633
e 609 634
e 609 635
e 609 636
e 609 637
e 609 638
e 609 639
e 609 640
e 609 641
e 609 642
e 609 643
e 609 644
e 609 645
e 609 646
e 609 647
e 609 648
e 609 649
e 609 650
e 609 651
e 609 652
e 609 653
e 609 654
e 609 655
e 656 657
e 656 658
e 656 659
e 656 660
e 656 661
e 656 662
e 656 663
e 656 664
e 656 665
e 656 666
e 656 667
e 656 668
e 656 669
e 656 670
e 656 671
e 656 672
e 656 673
e 656 674
e 656 675
e 656 676
e 656 677
e 656 678
e 656 679
e 656 680
e 656 681
e 656 682
e 656 683
e 656 684
e 656 685
e 656 686
e 687 688
e 687 689
e 687 690
e 687 691
e 687 692
e 687 693
e 687 694
e 687 695
e 687 696
e 687 697
e 687 698
e 687 699
e 687 700
e 687 701
e 687 702
e 687 703
e 687 704
e 687 705
e 687 706
e 687 707
e 687 708
e 709 710
e 709 711
e 709 712
e 709 713
e 709 714
e 709 715
e 709 716
e 709 717
e 709 718
e 709 719
e 709 720
e 709 721
e 709 722
e 709 723
e 709 724
e 709 725
e 709 726
e 709 727
e 709 728
e 709 729
e 709 730
e 709 731
e 709 732
e 709 733
e 709 734
e 709 735
e 709 736
e 737 738
e 737 739
e 737 740
e 737 741
e 737 742
e 737 743
e 737 744
e 737 745
e 737 746
e 737 747
e 737 748
e 737 749
e 737 750
e 737 751
e 737 752
e 737 753
e 737 754
e 737 755
e 737 756
e 737 757
e 737 758
e 737 759
e 737 760
e 737 761
e 737 762
e 737 763
e 737 764
e 737 765
e 737 766
e 737 767
e 737 768
e 737 769
e 737 770
e 737 771
e 737 772
e 737 773
e 737 774
e 737 775
e 737 776
e 737 777
e 737 778
e 737 779
e 737 780
e 737 781
e 737 782
e 737 783
e 737 784
e 785 786
e 785 787
e 785 788
e 785 789
e 785 790
e 785 791
e 785 792
e 785 793
e 785 794
e 785 795
e 785 796
e 785 797
e 785 798
e 785 799
e 785 800
e 785 801
e 785 802
e 785 803
e 785 804
e 785 805
e 785 806
e 785 807
e 785 808
e 785 809
e 785 810
e 785 811
e 785 812
e 785 813
e 785 814
e 785 815
e 785 816
e 785 817
e 785 818
e 785 819
e 820 821
e 820 822
e 820 823
e 820 824
e 820 825
e 820 826
e 820 827
e 820 828
e 820 829
e 820 830
e 820 831
e 820 832
e 820 833
e 820 834
e 820 835
e 820 836
e 820 837
e 820 838
e 820 839
e 820 840
e 820 841
e 820 842
e 820 843
e 820 844
e 820 845
e 820 846
e 820 847
e 820 848
e 820 849
e 820 850
e 820 851
e 820 852
e 820 853
e 820 854
e 820 855
e 820 856
e 820 857
e 820 858
e 820 859
e 820 860
e 820 861
e 820 862
e 820 863
e 820 864
e 865 866
e 865 867
e 865 868
e 865 869
e 865 870
e 865 871
e 865 872
e 865 873
e 865 874
e 865 875
e 865 876
e 865 877
e 865 878
e 865 879
e 865 880
e 865 881
e 865 882
e 865 883
e 865 884
e 865 885
e 865 886
e 865 887
e 865 888
e 865 889
e 865 890
e 865 891
e 865 892
e 865 893
e 865 894
e 865 895
e 865 896
e 865 897
e 865 898
e 865 899
e 865 900
e 865 901
e 865 902
e 865 903
e 865 904
e 865 905
e 865 906
e 865 907
e 865 908
e 865 909
e 865 910
e 865 911
e 865 912
e 865 913
e 865 914
e 865 915
e 865 916
e 865 917
e 865 918
e 865 919
e 865 920
e 865 921
e 865 922
e 865 923
e 865 924
e 865 925
e 865 926
e 927 928
e 927 929
e 927 930
e 927 931
e 927 932
e 927 933
e 927 934
e 927 935
e 927 936
e 927 937
e 927 938
e 927 939
e 927 940
e 927 941
e 927 942
e 927 943
e 927 944
e 927 945
e 927 946
e 927 947
e 927 948
e 927 949
e 927 950
e 927 951
e 927 952
e 927 953
e 927 954
e 927 955
e 927 956
e 927 957
e 927 958
e 927 959
e 927 960
e 927 961
e 962 963
e 962 964
e 962 965
e 962 966
e 962 967
e 962 968
e 962 969
e 962 970
e 962 971
e 962 972
e 962 973
e 962 974
e 962 975
e 962 976
e 962 977
e 962 978
e 962 979
e 962 980
e 962 981
e 962 982
e 962 983
e 962 984
e 962 985
e 962 986
e 962 987
e 962 988
e 962 989
e 962 990
e 962 991
e 962 992
e 962 993
e 962 994
e 962 995
e 962 996
e 962 997
e 962 998
e 962 999
e 962 1000
e 962 1001
e 962 1002
e 962 1003
e 962 1004
e 962 1005
e 962 1006
e 962 1007
e 962 1008
e 962 1009
e 962 1010
e 962 1011
e 962 1012
e 962 1013
e 962 1014
e 962 1015
e 962 1016
e 962 1017
e 962 1018
e 962 1019
e 962 1020
e 1021 1022
e 1021 1023
e 1021 1024
e 1021 1025
e 1021 1026
e 1021 1027
e 1021 1028
e 1021 1029
e 1021 1030
e 1021 1031
e 1021 1032
e 1021 1033
e 1021 1034
e 1021 1035
e 1021 1036
e 1021 1037
e 1021 1038
e 1021 1039
e 1021 1040
e 1021 1041
e 1021 1042
e 1021 1043
e 1021 1044
e 1021 1045
e 1046 1047
e 1046 1048
e 1046 1049
e 1046 1050
e 1046 1051
e 1046 1052
e 1046 1053
e 1046 1054
e 1046 1055
e 1046 1056
e 1046 1057
e 1046 1058
e 1046 1059
e 1046 1060
e 1046 1061
e 1046 1062
e 1046 1063
e 1046 1064
e 1046 1065
e 1046 1066
e 1067 1068
e 1067 1069
e 1067 1070
e 1067 1071
e 1067 1072
e 1067 1073
e 1067 1074
e 1067 1075
e 1067 1076
e 1067 1077
e 1067 1078
e 1067 1079
e 1067 1080
e 1067 1081
e 1067 1082
e 1067 1083
e 1067 1084
e 1067 1085
e 1067 1086
e 1067 1087
e 1088 1089
e 1088 1090
e 1088 1091
e 1088 1092
e 1088 1093
e 1088 1094
e 1088 1095
e 1088 1096
e 1088 1097
e 1088 1098
e 1088 1099
e 1088 1100
e 1101 1102
e 1101 1103
e 1101 1104
e 1101 1105
e 1101 1106
e 1101 1107
e 1101 1108
e 1101 1109
e 1101 1110
e 1101 1111
e 1101 1112
e 1101 1113
e 1101 1114
e 1101 1115
e 1101 1116
e 1101 1117
e 1101 1118
e 1101 1119
e 1101 1120
e 1101 1121
e 1101 1122
e 1101 1123
e 1101 1124
e 1101 1125
e 1101 1126
e 1101 1127
e 1101 1128
e 1101 1129
e 1101 1130
e 1101 1131
e 1101 1132
e 1101 1133
e 1101 1134
e 1101 1135
e 1101 1136
e 1101 1137
e 1101 1138
e 1101 1139
e 1101 1140
e 1101 1141
e 1101 1142
e 1101 1143
e 1101 1144
e 1101 1145
e 1101 1146
e 1101 1147
e 1101 1148
e 1101 1149
e 1101 1150
e 1101 1151
e 1101 1152
e 1101 1153
e 1101 1154
e 1101 1155
e 1101 1156
e 1101 1157
e 1101 1158
e 1101 1159
e 1101 1160
e 1101 1161
e 1101 1162
e 1163 1164
e 1163 1165
e 1163 1166
e 1163 1167
e 1163 1168
e 1163 1169
e 1163 1170
e 1163 1171
e 1163 1172
e 1163 1173
e 1163 1174
e 1163 1175
e 1163 1176
e 1163 1177
e 1163 1178
e 1163 1179
e 1163 1180
e 1163 1181
e 1163 1182
e 1163 1183
e 1163 1184
e 1163 1185
e 1163 1186
e 1163 1187
e 1163 1188
e 1163 1189
e 1163 1190
e 1163 1191
e 1163 1192
e 1163 1193
e 1163 1194
e 1163 1195
e 1163 1196
e 1163 1197
e 1163 1198
e 1163 1199
e 1163 1200
e 1163 1201
e 1163 1202
e 1203 1204
e 1203 1205
e 1203 1206
e 1203 1207
e 1203 1208
e 1203 1209
e 1203 1210
e 1203 1211
e 1203 1212
e 1203 1213
e 1203 1214
e 1203 1215
e 1203 1216
e 1203 1217
e 1203 1218
e 1203 1219
e 1203 1220
e 1203 1221
e 1203 1222
e 1203 1223
e 1203 1224
e 1203 1225
e 1203 1226
e 1203 1227
e 1203 1228
e 1203 1229
e 1203 1230
e 1203 1231
e 1203 1232
e 1203 1233
e 1203 1234
e 1203 1235
e 1203 1236
e 1203 1237
e 1203 1238
e 1203 1239
e 1203 1240
e 1203 1241
e 1203 1242
e 1203 1243
e 1203 1244
e 1203 1245
e 1203 1246
e 1203 1247
e 1203 1248
e 1203 1249
e 1203 1250
e 1203 1251
e 1203 1252
e 1203 1253
e 1203 1254
e 1203 1255
e 1203 1256
e 1203 1257
e 1203 1258
e 1203 1259
e 1203 1260
e 1203 1261
e 1203 1262
e 1203 1263
e 1203 1264
e 1203 1265
e 1203 1266
e 1203 1267
e 1268 1269
e 1268 1270
e 1268 1271
e 1268 1272
e 1268 1273
e 1268 1274
e 1268 1275
e 1268 1276
e 1268 1277
e 1268 1278
e 1268 1279
e 1268 1280
e 1268 1281
e 1268 1282
e 1268 1283
e 1268 1284
e 1268 1285
e 1268 1286
e 1268 1287
e 1268 1288
e 1268 1289
e 1268 1290
e 1268 1291
e 1268 1292
e 1268 1293
e 1268 1294
e 1268 1295
e 1268 1296
e 1268 1297
e 1268 1298
e 1268 1299
e 1268 1300
e 1268 1301
e 1268 1302
e 1268 1303
e 1268 1304
e 1268 1305
e 1268 1306
e 1268 1307
e 1268 1308
e 1268 1309
e 1268 1310
e 1268 1311
e 1268 1312
e 1268 1313
e 1268 1314
e 1268 1315
e 1268 1316
e 1268 1317
e 1268 1318
e 1268 1319
e 1268 1320
e 1268 1321
e 1268 1322
e 1268 1323
e 1268 1324
e 1268 1325
e 1268 1326
e 1268 1327
e 1268 1328
e 1268 1329
e 1268 1330
e 1268 1331
e 1268 1332
e 1268 1333
e 1268 1334
e 1268 1335
e 1268 1336
e 1268 1337
e 1338 1339
e 1338 1340
e 1338 1341
e 1338 1342
e 1338 1343
e 1338 1344
e 1338 1345
e 1338 1346
e 1338 1347
e 1338 1348
e 1338 1349
e 1338 1350
e 1338 1351
e 1338 1352
e 1353 1354
e 1353 1355
e 1353 1356
e 1353 1357
e 1353 1358
e 1353 1359
e 1353 1360
e 1353 1361
e 1353 1362
e 1353 1363
e 1353 1364
e 1353 1365
e 1353 1366
e 1353 1367
e 1353 1368
e 1353 1369
e 1353 1370
e 1353 1371
e 1353 1372
e 1353 1373
e 1353 1374
e 1353 1375
e 1353 1376
e 1353 1377
e 1353 1378
e 1353 1379
e 1353 1380
e 1353 1381
e 1353 1382
e 1353 1383
e 1353 1384
e 1353 1385
e 1353 1386
e 1353 1387
e 1353 1388
e 1353 1389
e 1353 1390
e 1353 1391
e 1353 1392
e 1353 1393
e 1353 1394
e 1353 1395
e 1353 1396
e 1353 1397
e 1353 1398
e 1353 1399
e 1353 1400
e 1353 1401
e 1353 1402
e 1353 1403
e 1353 1404
e 1353 1405
e 1353 1406
e 1353 1407
e 1353 1408
e 1353 1409
e 1353 1410
e 1353 1411
e 1353 1412
e 1353 1413
e 1353 1414
e 1353 1415
e 1353 1416
e 1353 1417
e 1353 1418
e 1353 1419
e 1353 1420
e 1353 1421
e 1353 1422
e 1423 1424
e 1423 1425
e 1423 1426
e 1423 1427
e 1423 1428
e 1423 1429
e 1423 1430
e 1423 1431
e 1423 1432
e 1423 1433
e 1423 1434
e 1423 1435
e 1423 1436
e 1423 1437
e 1423 1438
e 1423 1439
e 1423 1440
e 1423 1441
e 1423 1442
e 1423 1443
e 1423 1444
e 1423 1445
e 1423 1446
e 1423 1447
e 1448 1449
e 1448 1450
e 1448 1451
e 1448 1452
e 1448 1453
e 1448 1454
e 1448 1455
e 1448 1456
e 1448 1457
e 1448 1458
e 1448 1459
e 1448 1460
e 1448 1461
e 1448 1462
e 1448 1463
e 1448 1464
e 1448 1465
e 1448 1466
e 1448 1467
e 1448 1468
e 1448 1469
e 1448 1470
e 1471 1472
e 1471 1473
e 1471 1474
e 1471 1475
e 1471 1476
e 1471 1477
e 1471 1478
e 1471 1479
e 1471 1480
e 1471 1481
e 1471 1482
e 1471 1483
e 1471 1484
e 1471 1485
e 1471 1486
e 1471 1487
e 1471 1488
e 1471 1489
e 1471 1490
e 1471 1491
e 1471 1492
e 1471 1493
e 1471 1494
e 1471 1495
e 1471 1496
e 1471 1497
e 1471 1498
e 1471 1499
e 1471 1500
e 1471 1501
e 1471 1502
e 1471 1503
e 1471 1504
e 1471 1505
e 1471 1506
e 1471 1507
e 1471 1508
e 1471 1509
e 1471 1510
e 1471 1511
e 1471 1512
e 1471 1513
e 1471 1514
e 1471 1515
e 1516 1517
e 1516 1518
e 1516 1519
e 1516 1520
e 1516 1521
e 1516 1522
e 1516 1523
e 1516 1524
e 1516 1525
e 1516 1526
e 1516 1527
e 1516 1528
e 1516 1529
e 1516 1530
e 1516 1531
e 1516 1532
e 1516 1533
e 1516 1534
e 1516 1535
e 1516 1536
e 1516 1537
e 1516 1538
e 1516 1539
e 1516 1540
e 1516 1541
e 1516 1542
e 1516 1543
e 1516 1544
e 1516 1545
e 1516 1546
e 1516 1547
e 1516 1548
e 1516 1549
e 1516 1550
e 1516 1551
e 1516 1552
e 1516 1553
e 1516 1554
e 1516 1555
e 1516 1556
e 1516 1557
e 1516 1558
e 1516 1559
e 1516 1560
e 1516 1561
e 1516 1562
e 1516 1563
e 1516 1564
e 1516 1565
e 1516 1566
e 1516 1567
e 1516 1568
e 1516 1569
e 1516 1570
e 1516 1571
e 1516 1572
e 1573 1574
e 1573 1575
e 1573 1576
e 1573 1577
e 1573 1578
e 1573 1579
e 1573 1580
e 1573 1581
e 1573 1582
e 1573 1583
e 1573 1584
e 1573 1585
e 1573 1586
e 1573 1587
e 1573 1588
e 1573 1589
e 1573 1590
e 1573 1591
e 1573 1592
e 1573 1593
e 1573 1594
e 1573 1595
e 1573 1596
e 1573 1597
e 1573 1598
e 1573 1599
e 1573 1600
e 1573 1601
e 1573 1602
e 1573 1603
e 1573 1604
e 1573 1605
e 1573 1606
e 1573 1607
e 1573 1608
e 1573 1609
e 1573 1610
e 1573 1611
e 1573 1612
e 1573 1613
e 1573 1614
e 1573 1615
e 1573 1616
e 1573 1617
e 1573 1618
e 1573 1619
e 1573 1620
e 1573 1621
e 1573 1622
e 1573 1623
e 1573 1624
e 1573 1625
e 1573 1626
e 1573 1627
e 1573 1628
e 1573 1629
e 1573 1630
e 1573 1631
e 1573 1632
e 1573 1633
e 1573 1634
e 1635 1636
e 1635 1637
e 1635 1638
e 1635 1639
e 1635 1640
e 1635 1641
e 1635 1642
e 1635 1643
e 1635 1644
e 1635 1645
e 1635 1646
e 1635 1647
e 1635 1648
e 1635 1649
e 1635 1650
e 1635 1651
e 1635 1652
e 1635 1653
e 1635 1654
e 1635 1655
e 1635 1656
e 1635 1657
e 1635 1658
e 1635 1659
e 1635 1660
e 1661 1662
e 1661 1663
e 1661 1664
e 1661 1665
e 1661 1666
e 1661 1667
e 1661 1668
e 1661 1669
e 1661 1670
e 1661 1671
e 1661 1672
e 1661 1673
e 1661 1674
e 1661 1675
e 1661 1676
e 1661 1677
e 1661 1678
e 1661 1679
e 1661 1680
e 1661 1681
e 1661 1682
e 1661 1683
e 1661 1684
e 1661 1685
e 1661 1686
e 1661 1687
e 1661 1688
e 1661 1689
e 1661 1690
e 1661 1691
e 1661 1692
e 1661 1693
e 1661 1694
e 1661 1695
e 1661 1696
e 1661 1697
e 1661 1698
e 1661 1699
e 1661 1700
e 1661 1701
e 1661 1702
e 1661 1703
e 1661 1704
e 1661 1705
e 1661 1706
e 1661 1707
e 1661 1708
e 1661 1709
e 1661 1710
e 1661 1711
e 1661 1712
e 1661 1713
e 1661 1714
e 1661 1715
e 1661 1716
e 1661 1717
e 1661 1718
e 1661 1719
e 1661 1720
e 1661 1721
e 1722 1723
e 1722 1724
e 1722 1725
e 1722 1726
e 1722 1727
e 1722 1728
e 1722 1729
e 1722 1730
e 1722 1731
e 1722 1732
e 1722 1733
e 1722 1734
e 1722 1735
e 1722 1736
e 1722 1737
e 1722 1738
e 1722 1739
e 1722 1740
e 1722 1741
e 1722 1742
e 1722 1743
e 1722 1744
e 1722 1745
e 1722 1746
e 1722 1747
e 1722 1748
e 1722 1749
e 1722 1750
e 1722 1751
e 1722 1752
e 1722 1753
e 1722 1754
e 1722 1755
e 1722 1756
e 1722 1757
e 1722 1758
e 1722 1759
e 1722 1760
e 1722 1761
e 1722 1762
e 1722 1763
e 1722 1764
e 1722 1765
e 1722 1766
e 1722 1767
e 1768 1769
e 1768 1770
e 1768 1771
e 1768 1772
e 1768 1773
e 1768 1774
e 1768 1775
e 1768 1776
e 1768 1777
e 1768 1778
e 1768 1779
e 1768 1780
e 1768 1781
e 1768 1782
e 1768 1783
e 1768 1784
e 1785 1786
e 1785 1787
e 1785 1788
e 1785 1789
e 1785 1790
e 1785 1791
e 1785 1792
e 1785 1793
e 1785 1794
e 1785 1795
e 1785 1796
e 1785 1797
e 1785 1798
e 1785 1799
e 1785 1800
e 1785 1801
e 1785 1802
e 1785 1803
e 1785 1804
e 1785 1805
e 1785 1806
e 1785 1807
e 1785 1808
e 1785 1809
e 1785 1810
e 1785 1811
e 1785 1812
e 1785 1813
e 1785 1814
e 1785 1815
e 1785 1816
e 1785 1817
e 1785 1818
e 1785 1819
e 1785 1820
e 1785 1821
e 1785 1822
e 1785 1823
e 1785 1824
e 1785 1825
e 1785 1826
e 1785 1827
e 1785 1828
e 1785 1829
e 1785 1830
e 1785 1831
e 1785 1832
e 1785 1833
e 1785 1834
e 1785 1835
e 1785 1836
e 1785 1837
e 1838 1839
e 1838 1840
e 1838 1841
e 1838 1842
e 1838 1843
e 1838 1844
e 1838 1845
e 1838 1846
e 1838 1847
e 1838 1848
e 1849 1850
e 1849 1851
e 1849 1852
e 1849 1853
e 1849 1854
e 1849 1855
e 1849 1856
e 1849 1857
e 1849 1858
e 1849 1859
e 1849 1860
e 1849 1861
e 1849 1862
e 1849 1863
e 1849 1864
e 1849 1865
e 1849 1866
e 1849 1867
e 1849 1868
e 1849 1869
e 1849 1870
e 1849 1871
e 1849 1872
e 1849 1873
e 1849 1874
e 1849 1875
e 1849 1876
e 1849 1877
e 1849 1878
e 1849 1879
e 1849 1880
e 1849 1881
e 1849 1882
e 1849 1883
e 1849 1884
e 1849 1885
e 1849 1886
e 1849 1887
e 1849 1888
e 1849 1889
e 1849 1890
e 1849 1891
e 1849 1892
e 1849 1893
e 1849 1894
e 1849 1895
e 1849 1896
e 1849 1897
e 1849 1898
e 1849 1899
e 1849 1900
e 1849 1901
e 1849 1902
e 1849 1903
e 1849 1904
e 1849 1905
e 1849 1906
e 1849 1907
e 1849 1908
e 1849 1909
e 1849 1910
e 1849 1911
e 1849 1912
e 1849 1913
e 1849 1914
e 1849 1915
e 1916 1917
e 1916 1918
e 1916 1919
e 1916 1920
e 1916 1921
e 1916 1922
e 1916 1923
e 1916 1924
e 1916 1925
e 1916 1926
e 1916 1927
e 1916 1928
e 1916 1929
e 1916 1930
e 1916 1931
e 1916 1932
e 1916 1933
e 1916 1934
e 1916 1935
e 1916 1936
e 1916 1937
e 1916 1938
e 1916 1939
e 1916 1940
e 1916 1941
e 1916 1942
e 1916 1943
e 1916 1944
e 1916 1945
e 1916 1946
e 1916 1947
e 1916 1948
e 1916 1949
e 1916 1950
e 1916 1951
e 1916 1952
e 1916 1953
e 1916 1954
e 1916 1955
e 1916 1956
e 1916 1957
e 1916 1958
e 1916 1959
e 1960 1961
e 1960 1962
e 1960 1963
e 1960 1964
e 1960 1965
e 1960 1966
e 1960 1967
e 1960 1968
e 1960 1969
e 1960 1970
e 1960 1971
e 1960 1972
e 1960 1973
e 1960 1974
e 1960 1975
e 1960 1976
e 1960 1977
e 1960 1978
e 1960 1979
e 1960 1980
e 1960 1981
e 1960 1982
e 1960 1983
e 1960 1984
e 1960 1985
e 1960 1986
e 1960 1987
e 1960 1988
e 1960 1989
e 1960 1990
e 1960 1991
e 1960 1992
e 1960 1993
e 1960 1994
e 1960 1995
e 1960 1996
e 1960 1997
e 1960 1998
e 1960 1999
e 1960 2000
e 1960 2001
e 1960 2002
e 2003 2004
e 2003 2005
e 2003 2006
e 2003 2007
e 2003 2008
e 2003 2009
e 2003 2010
e 2003 2011
e 2003 2012
e 2003 2013
e 2003 2014
e 2003 2015
e 2003 2016
e 2003 2017
e 2003 2018
e 2003 2019
e 2003 2020
e 2003 2021
e 2003 2022
e 2003 2023
e 2003 2024
e 2003 2025
e 2003 2026
e 2027 2028
e 2027 2029
e 2027 2030
e 2027 2031
e 2027 2032
e 2027 2033
e 2027 2034
e 2027 2035
e 2027 2036
e 2027 2037
e 2027 2038
e 2027 2039
e 2027 2040
e 2027 2041
e 2027 2042
e 2027 2043
e 2027 2044
e 2027 2045
e 2027 2046
e 2027 2047
e 2027 2048
e 2027 2049
e 2027 2050
e 2027 2051
e 2027 2052
e 2027 2053
e 2027 2054
e 2027 2055
e 2027 2056
e 2027 2057
e 2027 2058
e 2027 2059
e 2060 2061
e 2060 2062
e 2060 2063
e 2060 2064
e 2060 2065
e 2060 2066
e 2060 2067
e 2060 2068
e 2060 2069
e 2060 2070
e 2060 2071
e 2060 2072
e 2060 2073
e 2060 2074
e 2060 2075
e 2060 2076
e 2060 2077
e 2060 2078
e 2060 2079
e 2060 2080
e 2060 2081
e 2060 2082
e 2060 2083
e 2060 2084
e 2060 2085
e 2060 2086
e 2060 2087
e 2060 2088
e 2060 2089
e 2060 2090
e 2060 2091
e 2060 2092
e 2060 2093
e 2060 2094
e 2060 2095
e 2060 2096
e 2060 2097
e 2060 2098
e 2060 2099
e 2060 2100
e 2060 2101
e 2060 2102
e 2060 2103
e 2060 2104
e 2060 2105
e 2060 2106
e 2060 2107
e 2060 2108
e 2060 2109
e 2060 2110
e 2060 2111
e 2060 2112
e 2060 2113
e 2060 2114
e 2060 2115
e 2060 2116
e 2060 2117
e 2060 2118
e 2060 2119
e 2120 2121
e 2120 2122
e 2120 2123
e 2120 2124
e 2120 2125
e 2120 2126
e 2120 2127
e 2120 2128
e 2120 2129
e 2120 2130
e 2120 2131
e 2120 2132
e 2120 2133
e 2120 2134
e 2120 2135
e 2120 2136
e 2120 2137
e 2120 2138
e 2120 2139
e 2120 2140
e 2120 2141
e 2120 2142
e 2120 2143
e 2120 2144
e 2120 2145
e 2120 2146
e 2120 2147
e 2120 2148
e 2120 2149
e 2120 2150
e 2120 2151
e 2120 2152
e 2120 2153
e 2120 2154
e 2120 2155
e 2120 2156
e 2120 2157
e 2120 2158
e 2120 2159
e 2120 2160
e 2120 2161
e 2120 2162
e 2120 2163
e 2120 2164
e 2120 2165
e 2120 2166
e 2120 2167
e 2120 2168
e 2120 2169
e 2120 2170
e 2120 2171
e 2120 2172
e 2120 2173
e 2120 2174
e 2120 2175
e 2120 2176
e 2120 2177
e 2120 2178
e 2179 2180
e 2179 2181
e 2179 2182
e 2179 2183
e 2179 2184
e 2179 2185
e 2179 2186
e 2179 2187
e 2179 2188
e 2179 2189
e 2179 2190
e 2179 2191
e 2179 2192
e 2179 2193
e 2179 2194
e 2179 2195
e 2179 2196
e 2179 2197
e 2179 2198
e 2179 2199
e 2179 2200
e 2179 2201
e 2179 2202
e 2179 2203
e 2179 2204
e 2179 2205
e 2179 2206
e 2179 2207
e 2179 2208
e 2179 2209
e 2179 2210
e 2179 2211
e 2179 2212
e 2179 2213
e 2214 2215
e 2214 2216
e 2214 2217
e 2214 2218
e 2214 2219
e 2214 2220
e 2214 2221
e 2214 2222
e 2214 2223
e 2214 2224
e 2214 2225
e 2214 2226
e 2214 2227
e 2214 2228
e 2214 2229
e 2214 2230
e 2214 2231
e 2214 2232
e 2214 2233
e 2214 2234
e 2214 2235
e 2214 2236
e 2214 2237
e 2214 2238
e 2214 2239
e 2214 2240
e 2214 2241
e 2214 2242
e 2214 2243
e 2214 2244
e 2214 2245
e 2214 2246
e 2214 2247
e 2214 2248
e 2214 2249
e 2214 2250
e 2214 2251
e 2214 2252
e 2214 2253
e 2254 2255
e 2254 2256
e 2254 2257
e 2254 2258
e 2254 2259
e 2254 2260
e 2254 2261
e 2254 2262
e 2254 2263
e 2254 2264
e 2254 2265
e 2254 2266
e 2254 2267
e 2254 2268
e 2254 2269
e 2254 2270
e 2254 2271
e 2254 2272
e 2254 2273
e 2254 2274
e 2254 2275
e 2254 2276
e 2254 2277
e 2254 2278
e 2254 2279
e 2254 2280
e 2254 2281
e 2254 2282
e 2254 2283
e 2254 2284
e 2254 2285
e 2254 2286
e 2254 2287
e 2254 2288
e 2254 2289
e 2254 2290
e 2254 2291
e 2254 2292
e 2254 2293
e 2254 2294
e 2254 2295
e 2254 2296
e 2254 2297
e 2254 2298
e 2254 2299
e 2254 2300
e 2254 2301
e 2254 2302
e 2254 2303
e 2254 2304
e 2254 2305
e 2254 2306
e 2254 2307
e 2254 2308
e 2254 2309
e 2254 2310
e 2254 2311
e 2254 2312
e 2254 2313
e 2254 2314
e 2254 2315
e 2254 2316
e 2254 2317
e 2254 2318
e 2254 2319
e 2254 2320
e 2321 2322
e 2321 2323
e 2321 2324
e 2321 2325
e 2321 2326
e 2321 2327
e 2321 2328
e 2321 2329
e 2321 2330
e 2321 2331
e 2321 2332
e 2321 2333
e 2321 2334
e 2321 2335
e 2321 2336
e 2321 2337
e 2321 2338
e 2321 2339
e 2321 2340
e 2321 2341
e 2321 2342
e 2321 2343
e 2321 2344
e 2321 2345
e 2321 2346
e 2321 2347
e 2321 2348
e 2321 2349
e 2321 2350
e 2321 2351
e 2321 2352
e 2321 2353
e 2321 2354
e 2321 2355
e 2321 2356
e 2321 2357
e 2321 2358
e 2321 2359
e 2321 2360
e 2321 2361
e 2321 2362
e 2321 2363
e 2321 2364
e 2321 2365
e 2321 2366
e 2321 2367
e 2321 2368
e 2321 2369
e 2321 2370
e 2321 2371
e 2321 2372
e 2321 2373
e 2374 2375
e 2374 2376
e 2374 2377
e 2374 2378
e 2374 2379
e 2374 2380
e 2374 2381
e 2374 2382
e 2374 2383
e 2374 2384
e 2374 2385
e 2374 2386
e 2374 2387
e 2374 2388
e 2374 2389
e 2374 2390
e 2374 2391
e 2374 2392
e 2374 2393
e 2374 2394
e 2374 2395
e 2374 2396
e 2374 2397
e 2398 2399
e 2398 2400
e 2398 2401
e 2398 2402
e 2398 2403
e 2398 2404
e 2398 2405
e 2398 2406
e 2398 2407
e 2398 2408
e 2398 2409
e 2398 2410
e 2398 2411
e 2398 2412
e 2398 2413
e 2398 2414
e 2398 2415
e 2398 2416
e 2398 2417
e 2398 2418
e 2398 2419
e 2398 2420
e 2398 2421
e 2398 2422
e 2398 2423
e 2398 2424
e 2398 2425
e 2398 2426
e 2398 2427
e 2428 2429
e 2428 2430
e 2428 2431
e 2428 2432
e 2428 2433
e 2428 2434
e 2428 2435
e 2428 2436
e 2428 2437
e 2428 2438
e 2428 2439
e 2428 2440
e 2428 2441
e 2428 2442
e 2443 2444
e 2443 2445
e 2443 2446
e 2443 2447
e 2443 2448
e 2443 2449
e 2443 2450
e 2443 2451
e 2443 2452
e 2443 2453
e 2443 2454
e 2443 2455
e 2443 2456
e 2443 2457
e 2443 2458
e 2443 2459
e 2443 2460
e 2443 2461
e 2443 2462
e 2443 2463
e 2443 2464
e 2443 2465
e 2443 2466
e 2443 2467
e 2443 2468
e 2443 2469
e 2443 2470
e 2443 2471
e 2443 2472
e 2443 2473
e 2443 2474
e 2443 2475
e 2443 2476
e 2443 2477
e 2443 2478
e 2443 2479
e 2443 2480
e 2443 2481
e 2443 2482
e 2443 2483
e 2443 2484
e 2443 2485
e 2443 2486
e 2443 2487
e 2443 2488
e 2443 2489
e 2443 2490
e 2443 2491
e 2443 2492
e 2443 2493
e 2443 2494
e 2443 2495
e 2443 2496
e 2443 2497
e 2498 2499
e 2498 2500
e 2498 2501
e 2498 2502
e 2498 2503
e 2498 2504
e 2498 2505
e 2498 2506
e 2498 2507
e 2498 2508
e 2498 2509
e 2498 2510
e 2498 2511
e 2498 2512
e 2498 2513
e 2498 2514
e 2498 2515
e 2498 2516
e 2498 2517
e 2498 2518
e 2498 2519
e 2498 2520
e 2498 2521
e 2498 2522
e 2498 2523
e 2498 2524
e 2498 2525
e 2498 2526
e 2498 2527
e 2498 2528
e 2498 2529
e 2498 2530
e 2498 2531
e 2498 2532
e 2498 2533
e 2498 2534
e 2498 2535
e 2498 2536
e 2498 2537
e 2498 2538
e 2498 2539
e 2498 2540
e 2498 2541
e 2498 2542
e 2498 2543
e 2498 2544
e 2498 2545
e 2498 2546
e 2498 2547
e 2498 2548
e 2498 2549
e 2498 2550
e 2498 2551
e 2498 2552
e 2498 2553
e 2498 2554
e 2498 2555
e 2498 2556
e 2498 2557
e 2498 2558
e 2498 2559
e 2498 2560
e 2498 2561
e 2498 2562
e 2563 2564
e 2563 2565
e 2563 2566
e 2563 2567
e 2563 2568
e 2563 2569
e 2563 2570
e 2563 2571
e 2563 2572
e 2563 2573
e 2563 2574
e 2563 2575
e 2563 2576
e 2563 2577
e 2563 2578
e 2563 2579
e 2563 2580
e 2563 2581
e 2563 2582
e 2563 2583
e 2563 2584
e 2563 2585
e 2563 2586
e 2563 2587
e 2588 2589
e 2588 2590
e 2588 2591
e 2588 2592
e 2588 2593
e 2588 2594
e 2588 2595
e 2588 2596
e 2588 2597
e 2588 2598
e 2588 2599
e 2588 2600
e 2588 2601
e 2588 2602
e 2588 2603
e 2588 2604
e 2588 2605
e 2588 2606
e 2588 2607
e 2588 2608
e 2588 2609
e 2588 2610
e 2588 2611
e 2588 2612
e 2588 2613
e 2588 2614
e 2588 2615
e 2588 2616
e 2588 2617
e 2588 2618
e 2588 2619
e 2588 2620
e 2588 2621
e 2588 2622
e 2588 2623
e 2588 2624
e 2588 2625
e 2626 2627
e 2626 2628
e 2626 2629
e 2626 2630
e 2626 2631
e 2626 2632
e 2626 2633
e 2626 2634
e 2626 2635
e 2626 2636
e 2626 2637
e 2626 2638
e 2626 2639
e 2626 2640
e 2626 2641
e 2626 2642
e 2626 2643
e 2626 2644
e 2626 2645
e 2626 2646
e 2626 2647
e 2626 2648
e 2626 2649
e 2626 2650
e 2626 2651
e 2626 2652
e 2626 2653
e 2626 2654
e 2626 2655
e 2626 2656
e 2626 2657
e 2626 2658
e 2626 2659
e 2626 2660
e 2626 2661
e 2626 2662
e 2626 2663
e 2626 2664
e 2626 2665
e 2626 2666
e 2626 2667
e 2626 2668
e 2626 2669
e 2626 2670
e 2626 2671
e 2626 2672
e 2626 2673
e 2626 2674
e 2626 2675
e 2626 2676
e 2626 2677
e 2626 2678
e 2626 2679
e 2626 2680
e 2681 2682
e 2681 2683
e 2681 2684
e 2681 2685
e 2681 2686
e 2681 2687
e 2681 2688
e 2681 2689
e 2681 2690
e 2681 2691
e 2681 2692
e 2681 2693
e 2681 2694
e 2681 2695
e 2681 2696
e 2681 2697
e 2681 2698
e 2681 2699
e 2681 2700
e 2681 2701
e 2681 2702
e 2681 2703
e 2681 2704
e 2681 2705
e 2681 2706
e 2681 2707
e 2681 2708
e 2681 2709
e 2681 2710
e 2681 2711
e 2681 2712
e 2681 2713
e 2681 2714
e 2681 2715
e 2681 2716
e 2681 2717
e 2681 2718
e 2681 2719
e 2681 2720
e 2681 2721
e 2681 2722
e 2681 2723
e 2681 2724
e 2681 2725
e 2681 2726
e 2681 2727
e 2681 2728
e 2681 2729
e 2681 2730
e 2681 2731
e 2681 2732
e 2681 2733
e 2734 2735
e 2734 2736
e 2734 2737
e 2734 2738
e 2734 2739
e 2734 2740
e 2734 2741
e 2734 2742
e 2734 2743
e 2734 2744
e 2734 2745
e 2734 2746
e 2734 2747
e 2734 2748
e 2734 2749
e 2734 2750
e 2734 2751
e 2734 2752
e 2734 2753
e 2734 2754
e 2734 2755
e 2734 2756
e 2734 2757
e 2734 2758
e 2734 2759
e 2734 2760
e 2734 2761
e 2734 2762
e 2734 2763
e 2734 2764
e 2734 2765
e 2734 2766
e 2734 2767
e 2734 2768
e 2734 2769
e 2734 2770
e 2734 2771
e 2734 2772
e 2734 2773
e 2734 2774
e 2734 2775
e 2734 2776
e 2734 2777
e 2734 2778
e 2734 2779
e 2734 2780
e 2734 2781
e 2734 2782
e 2734 2783
e 2734 2784
e 2734 2785
e 2734 2786
e 2734 2787
e 2734 2788
e 2734 2789
e 2790 2791
e 2790 2792
e 2790 2793
e 2790 2794
e 2790 2795
e 2790 2796
e 2790 2797
e 2790 2798
e 2790 2799
e 2790 2800
e 2790 2801
e 2790 2802
e 2790 2803
e 2790 2804
e 2790 2805
e 2790 2806
e 2790 2807
e 2790 2808
e 2790 2809
e 2790 2810
e 2790 2811
e 2790 2812
e 2790 2813
e 2790 2814
e 2790 2815
e 2790 2816
e 2790 2817
e 2790 2818
e 2790 2819
e 2790 2820
e 2790 2821
e 2790 2822
e 2790 2823
e 2790 2824
e 2790 2825
e 2790 2826
e 2790 2827
e 2790 2828
e 2790 2829
e 2790 2830
e 2790 2831
e 2790 2832
e 2790 2833
e 2790 2834
e 2790 2835
e 2790 2836
e 2790 2837
e 2790 2838
e 2790 2839
e 2790 2840
e 2790 2841
e 2790 2842
e 2790 2843
e 2790 2844
e 2790 2845
e 2790 2846
e 2790 2847
e 2790 2848
e 2790 2849
e 2790 2850
e 2790 2851
e 2790 2852
e 2790 2853
e 2790 2854
e 2790 2855
e 2856 2857
e 2856 2858
e 2856 2859
e 2856 2860
e 2856 2861
e 2856 2862
e 2856 2863
e 2856 2864
e 2856 2865
e 2856 2866
e 2856 2867
e 2856 2868
e 2856 2869
e 2856 2870
e 2856 2871
e 2856 2872
e 2856 2873
e 2856 2874
e 2856 2875
e 2856 2876
e 2856 2877
e 2856 2878
e 2856 2879
e 2856 2880
e 2856 2881
e 2856 2882
e 2856 2883
e 2856 2884
e 2856 2885
e 2856 2886
e 2856 2887
e 2856 2888
e 2856 2889
e 2856 2890
e 2856 2891
e 2892 2893
e 2892 2894
e 2892 2895
e 2892 2896
e 2892 2897
e 2892 2898
e 2892 2899
e 2892 2900
e 2892 2901
e 2892 2902
e 2892 2903
e 2892 2904
e 2892 2905
e 2892 2906
e 2892 2907
e 2892 2908
e 2892 2909
e 2892 2910
e 2892 2911
e 2892 2912
e 2892 2913
e 2892 2914
e 2892 2915
e 2892 2916
e 2892 2917
e 2892 2918
e 2892 2919
e 2892 2920
e 2892 2921
e 2892 2922
e 2892 2923
e 2892 2924
e 2892 2925
e 2892 2926
e 2892 2927
e 2892 2928
e 2892 2929
e 2892 2930
e 2892 2931
e 2892 2932
e 2892 2933
e 2892 2934
e 2892 2935
e 2892 2936
e 2892 2937
e 2892 2938
e 2892 2939
e 2892 2940
e 2892 2941
e 2892 2942
e 2892 2943
e 2892 2944
e 2892 2945
e 2892 2946
e 2892 2947
e 2892 2948
e 2892 2949
e 2892 2950
e 2892 2951
e 2892 2952
e 2892 2953
e 2892 2954
e 2892 2955
e 2892 2956
e 2892 2957
e 2892 2958
e 2892 2959
e 2892 2960
e 2892 2961
e 2892 2962
e 2963 2964
e 2963 2965
e 2963 2966
e 2963 2967
e 2963 2968
e 2963 2969
e 2963 2970
e 2963 2971
e 2963 2972
e 2963 2973
e 2963 2974
e 2963 2975
e 2963 2976
e 2963 2977
e 2963 2978
e 2963 2979
e 2963 2980
e 2963 2981
e 2963 2982
e 2963 2983
e 2963 2984
e 2963 2985
e 2963 2986
e 2963 2987
e 2963 2988
e 2963 2989
e 2963 2990
e 2963 2991
e 2992 2993
e 2992 2994
e 2992 2995
e 2992 2996
e 2992 2997
e 2992 2998
e 2992 2999
e 2992 3000
e 2992 3001
e 2992 3002
e 2992 3003
e 2992 3004
e 2992 3005
e 2992 3006
e 2992 3007
e 2992 3008
e 2992 3009
e 2992 3010
e 2992 3011
e 3012 3013
e 3012 3014
e 3012 3015
e 3012 3016
e 3012 3017
e 3012 3018
e 3012 3019
e 3012 3020
e 3012 3021
e 3012 3022
e 3012 3023
e 3012 3024
e 3012 3025
e 3012 3026
e 3012 3027
e 3012 3028
e 3012 3029
e 3012 3030
e 3012 3031
e 3012 3032
e 3012 3033
e 3012 3034
e 3012 3035
e 3012 3036
e 3012 3037
e 3012 3038
e 3012 3039
e 3012 3040
e 3012 3041
e 3012 3042
e 3012 3043
e 3012 3044
e 3012 3045
e 3012 3046
e 3012 3047
e 3012 3048
e 3012 3049
e 3012 3050
e 3012 3051
e 3012 3052
e 3012 3053
e 3012 3054
e 3012 3055
e 3012 3056
e 3012 3057
e 3012 3058
e 3012 3059
e 3012 3060
e 3061 3062
e 3061 3063
e 3061 3064
e 3061 3065
e 3061 3066
e 3061 3067
e 3061 3068
e 3061 3069
e 3061 3070
e 3061 3071
e 3061 3072
e 3061 3073
e 3061 3074
e 3061 3075
e 3061 3076
e 3061 3077
e 3061 3078
e 3061 3079
e 3061 3080
e 3061 3081
e 3061 3082
e 3061 3083
e 3061 3084
e 3061 3085
e 3061 3086
e 3061 3087
e 3061 3088
e 3061 3089
e 3061 3090
e 3061 3091
e 3061 3092
e 3061 3093
e 3061 3094
e 3061 3095
e 3061 3096
e 3061 3097
e 3061 3098
e 3061 3099
e 3061 3100
e 3061 3101
e 3061 3102
e 3061 3103
e 3061 3104
e 3061 3105
e 3061 3106
e 3061 3107
e 3061 3108
e 3061 3109
e 3061 3110
e 3061 3111
e 3061 3112
e 3061 3113
e 3061 3114
e 3061 3115
e 3061 3116
e 3061 3117
e 3061 3118
e 3061 3119
e 3061 3120
e 3061 3121
e 3061 3122
e 3061 3123
e 3061 3124
e 3061 3125
e 3061 3126
e 3061 3127
e 3061 3128
e 3129 3130
e 3129 3131
e 3129 3132
e 3129 3133
e 3129 3134
e 3129 3135
e 3129 3136
e 3129 3137
e 3129 3138
e 3129 3139
e 3129 3140
e 3129 3141
e 3129 3142
e 3129 3143
e 3129 3144
e 3129 3145
e 3129 3146
e 3129 3147
e 3129 3148
e 3129 3149
e 3129 3150
e 3129 3151
e 3129 3152
e 3129 3153
e 3129 3154
e 3129 3155
e 3129 3156
e 3129 3157
e 3129 3158
e 3159 3160
e 3159 3161
e 3159 3162
e 3159 3163
e 3159 3164
e 3159 3165
e 3159 3166
e 3159 3167
e 3159 3168
e 3159 3169
e 3159 3170
e 3159 3171
e 3159 3172
e 3159 3173
e 3159 3174
e 3159 3175
e 3159 3176
e 3159 3177
e 3159 3178
e 3159 3179
e 3159 3180
e 3159 3181
e 3159 3182
e 3159 3183
e 3159 3184
e 3159 3185
e 3159 3186
e 3159 3187
e 3159 3188
e 3159 3189
e 3159 3190
e 3159 3191
e 3159 3192
e 3159 3193
e 3159 3194
e 3159 3195
e 3159 3196
e 3159 3197
e 3159 3198
e 3159 3199
e 3159 3200
e 3159 3201
e 3159 3202
e 3159 3203
e 3159 3204
e 3159 3205
e 3159 3206
e 3159 3207
e 3159 3208
e 3159 3209
e 3159 3210
e 3159 3211
e 3159 3212
e 3159 3213
e 3159 3214
e 3215 3216
e 3215 3217
e 3215 3218
e 3215 3219
e 3215 3220
e 3215 3221
e 3215 3222
e 3215 3223
e 3215 3224
e 3215 3225
e 3215 3226
e 3215 3227
e 3215 3228
e 3215 3229
e 3215 3230
e 3215 3231
e 3215 3232
e 3215 3233
e 3215 3234
e 3215 3235
e 3215 3236
e 3215 3237
e 3215 3238
e 3215 3239
e 3215 3240
e 3215 3241
e 3215 3242
e 3215 3243
e 3215 3244
e 3215 3245
e 3215 3246
e 3215 3247
e 3215 3248
e 3215 3249
e 3215 3250
e 3215 3251
e 3215 3252
e 3215 3253
e 3215 3254
e 3215 3255
e 3215 3256
e 3215 3257
e 3215 3258
e 3215 3259
e 3215 3260
e 3215 3261
e 3215 3262
e 3215 3263
e 3215 3264
